language Essence 1.3

letting bot_end be [91, 1116, 433, 36, 185, 22, 182, 1332, 1303, 1334, 30, 121; int(1..12)]
letting bot_start be [1247, 153, 1557, 1296, 1397, 1368, 1240, 343, 278, 154, 1155, 1309; int(1..12)]
letting buffer_col be 2
letting buffer_row be 2
letting corridor_size be 1
letting n_shelves_col be 9
letting n_shelves_row be 24
letting shelf_col_size be 2
letting shelf_row_size be 1
